NAME : 666
COMMENT : drilling problem (Ludwig)
TYPE : TSP
DIMENSION: 5
EDGE_WEIGHT_TYPE : EUC_2D
NODE_COORD_SECTION
  Belial 288 149
  Behemoth 288 129
  Beelzebub 270 133
  Satanas 256 141
  Lucifer 256 157
	EOF